
  32    4
  10   10   10   10

   0   0   0   0   0   2 2 8 
   4  10  10  10  10   1 3 
   1  10  10  10  10   1 4 
   4  10  10  10  10   2 6 5 
   8  10  10  10  10   3 11 10 7 
   6  10  10  10  10   3 12 10 9 
   9  10  10  10  10   2 12 9 
   7  10  10  10  10   2 12 9 
   8  10  10  10  10   3 17 16 13 
  10  10  10  10  10   3 17 16 13 
   2  10  10  10  10   3 17 16 13 
   1  10  10  10  10   2 16 14 
   6  10  10  10  10   1 14 
   2  10  10  10  10   3 21 18 15 
   7  10  10  10  10   2 20 19 
   5  10  10  10  10   2 21 20 
   8  10  10  10  10   2 21 19 
   3  10  10  10  10   2 23 20 
  10  10  10  10  10   3 25 23 22 
   2  10  10  10  10   2 25 22 
   9  10  10  10  10   2 23 22 
   2  10  10  10  10   2 31 24 
   2  10  10  10  10   1 24 
   7  10  10  10  10   2 28 26 
   1  10  10  10  10   3 30 28 27 
   4  10  10  10  10   2 30 27 
  10  10  10  10  10   1 29 
   3  10  10  10  10   1 29 
   1  10  10  10  10   1 32
   2  10  10  10  10   1 32
   2  10  10  10  10   1 32
   0   0   0   0   0   0 
